p cnf 1145 2321
-1 2 0
3 2 0
1 -3 -2 0
4 -2 0
-4 2 0
-5 6 0
7 6 0
5 -7 -6 0
8 -6 0
-8 6 0
-9 10 0
11 10 0
9 -11 -10 0
12 -10 0
-12 10 0
-13 14 0
15 14 0
13 -15 -14 0
16 -14 0
-16 14 0
-17 18 0
19 18 0
17 -19 -18 0
20 -18 0
-20 18 0
-21 22 0
23 22 0
21 -23 -22 0
24 -22 0
-24 22 0
-25 26 0
27 26 0
25 -27 -26 0
28 -26 0
-28 26 0
-29 30 0
31 30 0
29 -31 -30 0
32 -30 0
-32 30 0
-33 34 0
35 34 0
33 -35 -34 0
36 -34 0
-36 34 0
-37 38 0
39 38 0
37 -39 -38 0
40 -38 0
-40 38 0
-41 42 0
43 42 0
41 -43 -42 0
44 -42 0
-44 42 0
-45 46 0
47 46 0
45 -47 -46 0
48 -46 0
-48 46 0
-49 50 0
51 50 0
49 -51 -50 0
52 -50 0
-52 50 0
-53 54 0
55 54 0
53 -55 -54 0
56 -54 0
-56 54 0
-57 58 0
59 58 0
57 -59 -58 0
60 -58 0
-60 58 0
-61 62 0
63 62 0
61 -63 -62 0
64 -62 0
-64 62 0
-65 66 0
67 66 0
65 -67 -66 0
68 -66 0
-68 66 0
-69 70 0
71 70 0
69 -71 -70 0
72 -70 0
-72 70 0
-73 74 0
75 74 0
73 -75 -74 0
76 -74 0
-76 74 0
-77 78 0
79 78 0
77 -79 -78 0
80 -78 0
-80 78 0
-81 82 0
83 82 0
81 -83 -82 0
84 -82 0
-84 82 0
-85 86 0
87 86 0
85 -87 -86 0
88 -86 0
-88 86 0
-89 90 0
91 90 0
89 -91 -90 0
92 -90 0
-92 90 0
-93 94 0
95 94 0
93 -95 -94 0
96 -94 0
-96 94 0
-97 98 0
99 98 0
97 -99 -98 0
100 -98 0
-100 98 0
-101 102 0
103 102 0
101 -103 -102 0
104 -102 0
-104 102 0
-105 106 0
107 106 0
105 -107 -106 0
108 -106 0
-108 106 0
-109 110 0
111 110 0
109 -111 -110 0
112 -110 0
-112 110 0
-113 114 0
115 114 0
113 -115 -114 0
116 -114 0
-116 114 0
-117 118 0
119 118 0
117 -119 -118 0
120 -118 0
-120 118 0
-121 122 0
123 122 0
121 -123 -122 0
124 -122 0
-124 122 0
-125 126 0
127 126 0
125 -127 -126 0
128 -126 0
-128 126 0
-129 130 0
131 130 0
129 -131 -130 0
132 -130 0
-132 130 0
-133 134 0
135 134 0
133 -135 -134 0
136 -134 0
-136 134 0
-137 138 0
139 138 0
137 -139 -138 0
140 -138 0
-140 138 0
-141 142 0
143 142 0
141 -143 -142 0
144 -142 0
-144 142 0
-145 146 0
147 146 0
145 -147 -146 0
148 -146 0
-148 146 0
-149 150 0
151 150 0
149 -151 -150 0
152 -150 0
-152 150 0
-153 154 0
155 154 0
153 -155 -154 0
156 -154 0
-156 154 0
-157 158 0
159 158 0
157 -159 -158 0
160 -158 0
-160 158 0
-161 162 0
163 162 0
161 -163 -162 0
164 -162 0
-164 162 0
-165 166 0
167 166 0
165 -167 -166 0
168 -166 0
-168 166 0
-169 170 0
171 170 0
169 -171 -170 0
172 -170 0
-172 170 0
-173 174 0
175 174 0
173 -175 -174 0
176 -174 0
-176 174 0
-177 178 0
179 178 0
177 -179 -178 0
180 -178 0
-180 178 0
-181 182 0
183 182 0
181 -183 -182 0
184 -182 0
-184 182 0
-185 186 0
187 186 0
185 -187 -186 0
188 -186 0
-188 186 0
-189 190 0
191 190 0
189 -191 -190 0
192 -190 0
-192 190 0
-193 194 0
195 194 0
193 -195 -194 0
196 -194 0
-196 194 0
-197 198 0
199 198 0
197 -199 -198 0
200 -198 0
-200 198 0
-201 202 0
203 202 0
201 -203 -202 0
204 -202 0
-204 202 0
-205 206 0
207 206 0
205 -207 -206 0
208 -206 0
-208 206 0
-209 210 0
211 210 0
209 -211 -210 0
212 -210 0
-212 210 0
-213 214 0
215 214 0
213 -215 -214 0
216 -214 0
-216 214 0
-217 218 0
219 218 0
217 -219 -218 0
220 -218 0
-220 218 0
-221 222 0
223 222 0
221 -223 -222 0
224 -222 0
-224 222 0
-225 226 0
227 226 0
225 -227 -226 0
228 -226 0
-228 226 0
-229 230 0
231 230 0
229 -231 -230 0
232 -230 0
-232 230 0
-233 234 0
235 234 0
233 -235 -234 0
236 -234 0
-236 234 0
-237 238 0
239 238 0
237 -239 -238 0
240 -238 0
-240 238 0
-241 242 0
243 242 0
241 -243 -242 0
244 -242 0
-244 242 0
-245 246 0
247 246 0
245 -247 -246 0
248 -246 0
-248 246 0
-249 250 0
251 250 0
249 -251 -250 0
252 -250 0
-252 250 0
-253 254 0
255 254 0
253 -255 -254 0
256 -254 0
-256 254 0
-257 258 0
259 258 0
257 -259 -258 0
260 -258 0
-260 258 0
-261 262 0
263 262 0
261 -263 -262 0
264 -262 0
-264 262 0
-265 266 0
267 266 0
265 -267 -266 0
268 -266 0
-268 266 0
-269 270 0
271 270 0
269 -271 -270 0
272 -270 0
-272 270 0
-273 274 0
275 274 0
273 -275 -274 0
276 -274 0
-276 274 0
-277 278 0
279 278 0
277 -279 -278 0
280 -278 0
-280 278 0
-281 282 0
283 282 0
281 -283 -282 0
284 -282 0
-284 282 0
-285 286 0
287 286 0
285 -287 -286 0
288 -286 0
-288 286 0
-289 290 0
291 290 0
289 -291 -290 0
292 -290 0
-292 290 0
-293 294 0
295 294 0
293 -295 -294 0
296 -294 0
-296 294 0
-297 298 0
299 298 0
297 -299 -298 0
300 -298 0
-300 298 0
-301 302 0
303 302 0
301 -303 -302 0
304 -302 0
-304 302 0
-305 306 0
307 306 0
305 -307 -306 0
308 -306 0
-308 306 0
-309 310 0
311 310 0
309 -311 -310 0
312 -310 0
-312 310 0
-313 314 0
315 314 0
313 -315 -314 0
316 -314 0
-316 314 0
-317 318 0
319 318 0
317 -319 -318 0
320 -318 0
-320 318 0
-321 322 0
323 322 0
321 -323 -322 0
324 -322 0
-324 322 0
-325 326 0
327 326 0
325 -327 -326 0
328 -326 0
-328 326 0
-329 330 0
331 330 0
329 -331 -330 0
332 -330 0
-332 330 0
-333 334 0
335 334 0
333 -335 -334 0
336 -334 0
-336 334 0
-337 338 0
339 338 0
337 -339 -338 0
340 -338 0
-340 338 0
-341 342 0
343 342 0
341 -343 -342 0
344 -342 0
-344 342 0
-345 346 0
347 346 0
345 -347 -346 0
348 -346 0
-348 346 0
-349 350 0
351 350 0
349 -351 -350 0
352 -350 0
-352 350 0
-353 354 0
355 354 0
353 -355 -354 0
356 -354 0
-356 354 0
-357 358 0
359 358 0
357 -359 -358 0
360 -358 0
-360 358 0
-361 362 0
363 362 0
361 -363 -362 0
364 -362 0
-364 362 0
-365 366 0
367 366 0
365 -367 -366 0
368 -366 0
-368 366 0
-369 370 0
371 370 0
369 -371 -370 0
372 -370 0
-372 370 0
-373 374 0
375 374 0
373 -375 -374 0
376 -374 0
-376 374 0
-377 378 0
379 378 0
377 -379 -378 0
380 -378 0
-380 378 0
-381 382 0
383 382 0
381 -383 -382 0
384 -382 0
-384 382 0
-385 386 0
387 386 0
385 -387 -386 0
388 -386 0
-388 386 0
-389 390 0
391 390 0
389 -391 -390 0
392 -390 0
-392 390 0
-393 394 0
395 394 0
393 -395 -394 0
396 -394 0
-396 394 0
-397 398 0
399 398 0
397 -399 -398 0
400 -398 0
-400 398 0
-401 402 0
403 402 0
401 -403 -402 0
404 -402 0
-404 402 0
-405 406 0
407 406 0
405 -407 -406 0
408 -406 0
-408 406 0
-409 410 0
411 410 0
409 -411 -410 0
412 -410 0
-412 410 0
-413 414 0
415 414 0
413 -415 -414 0
416 -414 0
-416 414 0
-417 418 0
419 418 0
417 -419 -418 0
420 -418 0
-420 418 0
-421 422 0
423 422 0
421 -423 -422 0
424 -422 0
-424 422 0
-425 426 0
427 426 0
425 -427 -426 0
428 -426 0
-428 426 0
-429 430 0
431 430 0
429 -431 -430 0
432 -430 0
-432 430 0
-433 434 0
435 434 0
433 -435 -434 0
436 -434 0
-436 434 0
-437 438 0
439 438 0
437 -439 -438 0
440 -438 0
-440 438 0
-441 442 0
443 442 0
441 -443 -442 0
444 -442 0
-444 442 0
-445 446 0
447 446 0
445 -447 -446 0
448 -446 0
-448 446 0
-449 450 0
451 450 0
449 -451 -450 0
452 -450 0
-452 450 0
-453 454 0
455 454 0
453 -455 -454 0
456 -454 0
-456 454 0
-457 458 0
459 458 0
457 -459 -458 0
460 -458 0
-460 458 0
-461 462 0
463 462 0
461 -463 -462 0
464 -462 0
-464 462 0
-465 466 0
467 466 0
465 -467 -466 0
468 -466 0
-468 466 0
-469 470 0
471 470 0
469 -471 -470 0
472 -470 0
-472 470 0
-473 474 0
475 474 0
473 -475 -474 0
476 -474 0
-476 474 0
-477 478 0
479 478 0
477 -479 -478 0
480 -478 0
-480 478 0
-481 482 0
483 482 0
481 -483 -482 0
484 -482 0
-484 482 0
-485 486 0
487 486 0
485 -487 -486 0
488 -486 0
-488 486 0
-489 490 0
491 490 0
489 -491 -490 0
492 -490 0
-492 490 0
-493 494 0
495 494 0
493 -495 -494 0
496 -494 0
-496 494 0
-497 498 0
499 498 0
497 -499 -498 0
500 -498 0
-500 498 0
-501 502 0
503 502 0
501 -503 -502 0
504 -502 0
-504 502 0
-505 506 0
507 506 0
505 -507 -506 0
508 -506 0
-508 506 0
-509 510 0
511 510 0
509 -511 -510 0
512 -510 0
-512 510 0
-513 514 0
515 514 0
513 -515 -514 0
516 -514 0
-516 514 0
-517 518 0
519 518 0
517 -519 -518 0
520 -518 0
-520 518 0
-521 522 0
523 522 0
521 -523 -522 0
524 -522 0
-524 522 0
-525 526 0
527 526 0
525 -527 -526 0
528 -526 0
-528 526 0
-529 530 0
531 530 0
529 -531 -530 0
532 -530 0
-532 530 0
-533 534 0
535 534 0
533 -535 -534 0
536 -534 0
-536 534 0
-537 538 0
539 538 0
537 -539 -538 0
540 -538 0
-540 538 0
-541 542 0
543 542 0
541 -543 -542 0
544 -542 0
-544 542 0
-545 546 0
547 546 0
545 -547 -546 0
548 -546 0
-548 546 0
-549 550 0
551 550 0
549 -551 -550 0
552 -550 0
-552 550 0
-553 554 0
555 554 0
553 -555 -554 0
556 -554 0
-556 554 0
-557 558 0
559 558 0
557 -559 -558 0
560 -558 0
-560 558 0
-561 562 0
563 562 0
561 -563 -562 0
564 -562 0
-564 562 0
-565 566 0
567 566 0
565 -567 -566 0
568 -566 0
-568 566 0
-569 570 0
571 570 0
569 -571 -570 0
572 -570 0
-572 570 0
-573 574 0
575 574 0
573 -575 -574 0
576 -574 0
-576 574 0
-577 578 0
579 578 0
577 -579 -578 0
580 -578 0
-580 578 0
-581 582 0
583 582 0
581 -583 -582 0
584 -582 0
-584 582 0
-585 586 0
587 586 0
585 -587 -586 0
588 -586 0
-588 586 0
-589 590 0
591 590 0
589 -591 -590 0
592 -590 0
-592 590 0
-593 594 0
595 594 0
593 -595 -594 0
596 -594 0
-596 594 0
-597 598 0
599 598 0
597 -599 -598 0
600 -598 0
-600 598 0
-601 602 0
603 602 0
601 -603 -602 0
604 -602 0
-604 602 0
-605 606 0
607 606 0
605 -607 -606 0
608 -606 0
-608 606 0
-609 610 0
611 610 0
609 -611 -610 0
612 -610 0
-612 610 0
-613 614 0
615 614 0
613 -615 -614 0
616 -614 0
-616 614 0
-617 618 0
619 618 0
617 -619 -618 0
620 -618 0
-620 618 0
-621 622 0
623 622 0
621 -623 -622 0
624 -622 0
-624 622 0
-625 626 0
627 626 0
625 -627 -626 0
628 -626 0
-628 626 0
-629 630 0
631 630 0
629 -631 -630 0
632 -630 0
-632 630 0
-633 634 0
635 634 0
633 -635 -634 0
636 -634 0
-636 634 0
-637 638 0
639 638 0
637 -639 -638 0
640 -638 0
-640 638 0
-641 642 0
643 642 0
641 -643 -642 0
644 -642 0
-644 642 0
-645 646 0
647 646 0
645 -647 -646 0
648 -646 0
-648 646 0
-649 650 0
651 650 0
649 -651 -650 0
652 -650 0
-652 650 0
-653 654 0
-5 -655 654 0
5 653 -654 0
653 655 -654 0
1 -654 0
-1 654 0
-656 657 0
-658 -9 657 0
656 658 -657 0
9 656 -657 0
5 -657 0
-5 657 0
-659 660 0
-661 -13 660 0
659 661 -660 0
13 659 -660 0
9 -660 0
-9 660 0
-662 663 0
-17 -664 663 0
17 662 -663 0
662 664 -663 0
13 -663 0
-13 663 0
-665 666 0
-21 -667 666 0
21 665 -666 0
665 667 -666 0
17 -666 0
-17 666 0
-668 669 0
-670 -25 669 0
668 670 -669 0
25 668 -669 0
21 -669 0
-21 669 0
-671 672 0
-673 -665 672 0
-673 -668 -667 672 0
671 673 -672 0
665 671 673 -672 0
668 671 673 -672 0
665 668 671 -672 0
667 671 673 -672 0
665 667 671 -672 0
25 -672 0
-25 672 0
-674 675 0
-33 -676 675 0
33 674 -675 0
674 676 -675 0
29 -675 0
-29 675 0
-677 678 0
-679 -37 678 0
677 679 -678 0
37 677 -678 0
33 -678 0
-33 678 0
-680 681 0
-682 -41 681 0
680 682 -681 0
41 680 -681 0
37 -681 0
-37 681 0
-683 684 0
-685 -45 684 0
683 685 -684 0
45 683 -684 0
41 -684 0
-41 684 0
-686 687 0
-49 -688 687 0
49 686 -687 0
686 688 -687 0
45 -687 0
-45 687 0
-689 690 0
-680 -691 690 0
-682 -683 -691 690 0
-682 -685 -686 -691 690 0
680 682 689 -690 0
682 689 691 -690 0
680 682 683 689 -690 0
682 683 689 691 -690 0
680 682 689 691 -690 0
680 682 685 689 -690 0
682 685 689 691 -690 0
680 683 685 689 -690 0
683 685 689 691 -690 0
680 685 689 691 -690 0
685 689 691 -690 0
680 682 686 689 -690 0
682 686 689 691 -690 0
680 683 686 689 -690 0
683 686 689 691 -690 0
680 686 689 691 -690 0
686 689 691 -690 0
680 683 689 691 -690 0
683 689 691 -690 0
680 689 691 -690 0
689 691 -690 0
49 -690 0
-49 690 0
-692 693 0
-57 -694 693 0
57 692 -693 0
692 694 -693 0
53 -693 0
-53 693 0
-695 696 0
-697 -61 696 0
695 697 -696 0
61 695 -696 0
57 -696 0
-57 696 0
-698 699 0
-700 -65 699 0
698 700 -699 0
65 698 -699 0
61 -699 0
-61 699 0
-701 702 0
-69 -703 702 0
69 701 -702 0
701 703 -702 0
65 -702 0
-65 702 0
-704 705 0
-73 -706 705 0
73 704 -705 0
704 706 -705 0
69 -705 0
-69 705 0
-707 708 0
-698 -709 708 0
-700 -701 -709 708 0
-710 0
698 700 707 -708 0
700 707 709 -708 0
698 700 701 707 -708 0
700 701 707 709 -708 0
698 700 707 709 -708 0
698 700 704 707 -708 0
700 704 707 709 -708 0
698 701 704 707 -708 0
701 704 707 709 -708 0
698 704 707 709 -708 0
704 707 709 -708 0
698 700 703 707 -708 0
700 703 707 709 -708 0
698 701 703 707 -708 0
701 703 707 709 -708 0
698 703 707 709 -708 0
703 707 709 -708 0
698 701 707 709 -708 0
701 707 709 -708 0
698 707 709 -708 0
707 709 -708 0
73 -708 0
-73 708 0
-711 712 0
-81 -713 712 0
81 711 -712 0
711 713 -712 0
77 -712 0
-77 712 0
-714 715 0
-716 -85 715 0
714 716 -715 0
85 714 -715 0
81 -715 0
-81 715 0
-717 718 0
-719 -89 718 0
717 719 -718 0
89 717 -718 0
85 -718 0
-85 718 0
-720 721 0
-717 -722 721 0
717 720 -721 0
720 722 -721 0
89 -721 0
-89 721 0
-723 724 0
-97 -725 724 0
97 723 -724 0
723 725 -724 0
93 -724 0
-93 724 0
-726 727 0
-728 -101 727 0
726 728 -727 0
101 726 -727 0
97 -727 0
-97 727 0
101 -729 0
729 -101 0
-730 731 0
-732 -9 731 0
730 732 -731 0
9 730 -731 0
105 -731 0
-105 731 0
-733 734 0
-735 -113 734 0
733 735 -734 0
113 733 -734 0
109 -734 0
-109 734 0
-736 737 0
-738 -117 737 0
736 738 -737 0
117 736 -737 0
113 -737 0
-113 737 0
-739 740 0
-105 -741 740 0
105 739 -740 0
739 741 -740 0
117 -740 0
-117 740 0
-742 743 0
-744 -57 743 0
742 744 -743 0
57 742 -743 0
121 -743 0
-121 743 0
-745 746 0
-13 -747 746 0
13 745 -746 0
745 747 -746 0
125 -746 0
-125 746 0
-748 749 0
-77 -750 749 0
77 748 -749 0
748 750 -749 0
129 -749 0
-129 749 0
-751 752 0
-753 -137 752 0
751 753 -752 0
137 751 -752 0
133 -752 0
-133 752 0
-754 755 0
-756 -141 755 0
754 756 -755 0
141 754 -755 0
137 -755 0
-137 755 0
-757 758 0
-759 -73 758 0
757 759 -758 0
73 757 -758 0
141 -758 0
-141 758 0
-760 761 0
-762 -149 761 0
760 762 -761 0
149 760 -761 0
145 -761 0
-145 761 0
-763 764 0
-765 -153 764 0
763 765 -764 0
153 763 -764 0
149 -764 0
-149 764 0
-766 767 0
-157 -768 767 0
157 766 -767 0
766 768 -767 0
153 -767 0
-153 767 0
-769 770 0
-65 -771 770 0
65 769 -770 0
769 771 -770 0
157 -770 0
-157 770 0
-772 773 0
-117 -774 773 0
117 772 -773 0
772 774 -773 0
161 -773 0
-161 773 0
-775 776 0
-169 -777 776 0
169 775 -776 0
775 777 -776 0
165 -776 0
-165 776 0
-778 779 0
-780 -173 779 0
778 780 -779 0
173 778 -779 0
169 -779 0
-169 779 0
-781 782 0
-783 -177 782 0
781 783 -782 0
177 781 -782 0
173 -782 0
-173 782 0
-784 785 0
-786 -181 785 0
784 786 -785 0
181 784 -785 0
177 -785 0
-177 785 0
-787 788 0
-185 -789 788 0
185 787 -788 0
787 789 -788 0
181 -788 0
-181 788 0
-790 791 0
-89 -792 791 0
89 790 -791 0
790 792 -791 0
185 -791 0
-185 791 0
-793 794 0
-193 -795 794 0
193 793 -794 0
793 795 -794 0
189 -794 0
-189 794 0
-796 797 0
-798 -197 797 0
796 798 -797 0
197 796 -797 0
193 -797 0
-193 797 0
-799 800 0
-201 -801 800 0
201 799 -800 0
799 801 -800 0
197 -800 0
-197 800 0
-802 803 0
-41 -804 803 0
41 802 -803 0
802 804 -803 0
201 -803 0
-201 803 0
-805 806 0
-209 -807 806 0
209 805 -806 0
805 807 -806 0
205 -806 0
-205 806 0
-808 809 0
-810 -213 809 0
808 810 -809 0
213 808 -809 0
209 -809 0
-209 809 0
811 -812 0
-217 -813 811 0
217 812 -811 0
812 813 -811 0
213 -811 0
-213 811 0
-814 815 0
-221 -816 815 0
221 814 -815 0
814 816 -815 0
217 -815 0
-217 815 0
-817 818 0
-819 -225 818 0
817 819 -818 0
225 817 -818 0
221 -818 0
-221 818 0
820 -821 0
-822 -814 820 0
-822 -817 -816 820 0
821 822 -820 0
814 821 822 -820 0
817 821 822 -820 0
814 817 821 -820 0
816 821 822 -820 0
814 816 821 -820 0
225 -820 0
-225 820 0
-823 824 0
-233 -825 824 0
233 823 -824 0
823 825 -824 0
229 -824 0
-229 824 0
-826 827 0
-828 -237 827 0
826 828 -827 0
237 826 -827 0
233 -827 0
-233 827 0
-829 830 0
-241 -831 830 0
241 829 -830 0
829 831 -830 0
237 -830 0
-237 830 0
-832 833 0
-834 -245 833 0
832 834 -833 0
245 832 -833 0
241 -833 0
-241 833 0
-835 836 0
-249 -837 836 0
249 835 -836 0
835 837 -836 0
245 -836 0
-245 836 0
838 -839 0
-829 -840 838 0
-832 -831 -840 838 0
-841 0
829 832 834 839 -838 0
832 834 839 840 -838 0
829 831 834 839 -838 0
831 834 839 840 -838 0
829 834 839 840 -838 0
834 839 840 -838 0
829 832 835 839 -838 0
832 835 839 840 -838 0
829 831 835 839 -838 0
831 835 839 840 -838 0
829 835 839 840 -838 0
835 839 840 -838 0
829 831 832 839 -838 0
831 832 839 840 -838 0
829 831 839 -838 0
831 839 840 -838 0
829 831 839 840 -838 0
829 832 839 840 -838 0
832 839 840 -838 0
829 839 840 -838 0
839 840 -838 0
249 -838 0
-249 838 0
-842 843 0
-844 -257 843 0
842 844 -843 0
257 842 -843 0
253 -843 0
-253 843 0
-845 846 0
-847 -261 846 0
845 847 -846 0
261 845 -846 0
257 -846 0
-257 846 0
-848 849 0
-850 -265 849 0
848 850 -849 0
265 848 -849 0
261 -849 0
-261 849 0
851 -852 0
-269 -853 851 0
269 852 -851 0
852 853 -851 0
265 -851 0
-265 851 0
-854 855 0
-856 -273 855 0
854 856 -855 0
273 854 -855 0
269 -855 0
-269 855 0
-857 858 0
-277 -859 858 0
277 857 -858 0
857 859 -858 0
273 -858 0
-273 858 0
-860 861 0
-854 -862 861 0
-856 -857 -862 861 0
854 856 860 -861 0
856 860 862 -861 0
854 857 860 -861 0
857 860 862 -861 0
854 860 862 -861 0
860 862 -861 0
277 -861 0
-277 861 0
-863 864 0
-285 -865 864 0
285 863 -864 0
863 865 -864 0
281 -864 0
-281 864 0
-866 867 0
-868 -289 867 0
866 868 -867 0
289 866 -867 0
285 -867 0
-285 867 0
869 -870 0
-871 -293 869 0
870 871 -869 0
293 870 -869 0
289 -869 0
-289 869 0
-872 873 0
-874 -297 873 0
872 874 -873 0
297 872 -873 0
293 -873 0
-293 873 0
-875 876 0
-301 -877 876 0
301 875 -876 0
875 877 -876 0
297 -876 0
-297 876 0
-878 879 0
-880 -305 879 0
878 880 -879 0
305 878 -879 0
301 -879 0
-301 879 0
-881 882 0
-872 -883 882 0
-874 -883 -875 882 0
-884 0
872 874 881 -882 0
874 881 883 -882 0
872 874 881 883 -882 0
872 874 875 881 -882 0
874 875 881 883 -882 0
872 874 877 881 -882 0
874 877 881 883 -882 0
872 877 881 883 -882 0
877 881 883 -882 0
872 875 877 881 -882 0
875 877 881 883 -882 0
872 881 883 -882 0
881 883 -882 0
872 875 881 883 -882 0
875 881 883 -882 0
872 874 878 881 -882 0
874 878 881 883 -882 0
872 878 881 883 -882 0
878 881 883 -882 0
872 875 878 881 -882 0
875 878 881 883 -882 0
305 -882 0
-305 882 0
-885 886 0
-887 -313 886 0
885 887 -886 0
313 885 -886 0
309 -886 0
-309 886 0
-888 889 0
-890 -317 889 0
888 890 -889 0
317 888 -889 0
313 -889 0
-313 889 0
-891 892 0
-321 -893 892 0
321 891 -892 0
891 893 -892 0
317 -892 0
-317 892 0
-894 895 0
-885 -896 895 0
-887 -896 -888 895 0
-897 0
885 887 894 -895 0
887 894 896 -895 0
885 887 894 896 -895 0
885 887 888 894 -895 0
887 888 894 896 -895 0
885 887 890 894 -895 0
887 890 894 896 -895 0
885 890 894 896 -895 0
890 894 896 -895 0
885 888 890 894 -895 0
888 890 894 896 -895 0
885 887 891 894 -895 0
887 891 894 896 -895 0
885 891 894 896 -895 0
891 894 896 -895 0
885 888 891 894 -895 0
888 891 894 896 -895 0
885 894 896 -895 0
894 896 -895 0
885 888 894 896 -895 0
888 894 896 -895 0
321 -895 0
-321 895 0
-898 899 0
-329 -900 899 0
329 898 -899 0
898 900 -899 0
325 -899 0
-325 899 0
-901 902 0
-903 -333 902 0
901 903 -902 0
333 901 -902 0
329 -902 0
-329 902 0
904 -905 0
-906 -337 904 0
905 906 -904 0
337 905 -904 0
333 -904 0
-333 904 0
-907 908 0
-341 -909 908 0
341 907 -908 0
907 909 -908 0
337 -908 0
-337 908 0
-910 911 0
-912 -345 911 0
910 912 -911 0
345 910 -911 0
341 -911 0
-341 911 0
-913 914 0
-907 -915 914 0
-910 -909 -915 914 0
907 910 913 -914 0
910 913 915 -914 0
907 909 913 -914 0
909 913 915 -914 0
907 913 915 -914 0
913 915 -914 0
345 -914 0
-345 914 0
-916 917 0
-918 -353 917 0
916 918 -917 0
353 916 -917 0
349 -917 0
-349 917 0
919 -920 0
-357 -921 919 0
357 920 -919 0
920 921 -919 0
353 -919 0
-353 919 0
922 -923 0
-924 -45 922 0
923 924 -922 0
45 923 -922 0
357 -922 0
-357 922 0
-925 926 0
-927 -365 926 0
925 927 -926 0
365 925 -926 0
361 -926 0
-361 926 0
928 -929 0
-930 -369 928 0
929 930 -928 0
369 929 -928 0
365 -928 0
-365 928 0
-931 932 0
-933 -373 932 0
931 933 -932 0
373 931 -932 0
369 -932 0
-369 932 0
934 -935 0
-931 -936 934 0
931 935 -934 0
935 936 -934 0
373 -934 0
-373 934 0
-937 938 0
-381 -939 938 0
381 937 -938 0
937 939 -938 0
377 -938 0
-377 938 0
-940 941 0
-942 -385 941 0
940 942 -941 0
385 940 -941 0
381 -941 0
-381 941 0
943 -944 0
-25 -945 943 0
25 944 -943 0
944 945 -943 0
385 -943 0
-385 943 0
-946 947 0
-393 -948 947 0
393 946 -947 0
946 948 -947 0
389 -947 0
-389 947 0
-949 950 0
-397 -951 950 0
397 949 -950 0
949 951 -950 0
393 -950 0
-393 950 0
-952 953 0
-954 -401 953 0
952 954 -953 0
401 952 -953 0
397 -953 0
-397 953 0
955 -956 0
-225 -957 955 0
225 956 -955 0
956 957 -955 0
401 -955 0
-401 955 0
-958 959 0
-409 -960 959 0
409 958 -959 0
958 960 -959 0
405 -959 0
-405 959 0
-961 962 0
-963 -413 962 0
961 963 -962 0
413 961 -962 0
409 -962 0
-409 962 0
964 -965 0
-966 -401 964 0
965 966 -964 0
401 965 -964 0
413 -964 0
-413 964 0
-967 968 0
-969 -421 968 0
967 969 -968 0
421 967 -968 0
417 -968 0
-417 968 0
970 -971 0
-425 -972 970 0
425 971 -970 0
971 972 -970 0
421 -970 0
-421 970 0
-973 974 0
-429 -975 974 0
429 973 -974 0
973 975 -974 0
425 -974 0
-425 974 0
976 -977 0
-978 -973 976 0
977 978 -976 0
973 977 -976 0
429 -976 0
-429 976 0
-979 980 0
-437 -981 980 0
437 979 -980 0
979 981 -980 0
433 -980 0
-433 980 0
-982 983 0
-984 -441 983 0
982 984 -983 0
441 982 -983 0
437 -983 0
-437 983 0
985 -986 0
-987 -445 985 0
986 987 -985 0
445 986 -985 0
441 -985 0
-441 985 0
-988 989 0
-449 -990 989 0
449 988 -989 0
988 990 -989 0
445 -989 0
-445 989 0
-991 992 0
-453 -993 992 0
453 991 -992 0
991 993 -992 0
449 -992 0
-449 992 0
-994 995 0
-996 -988 995 0
-996 -991 -990 995 0
994 996 -995 0
988 994 996 -995 0
991 994 996 -995 0
988 991 994 -995 0
990 994 996 -995 0
988 990 994 -995 0
453 -995 0
-453 995 0
-997 998 0
-461 -999 998 0
461 997 -998 0
997 999 -998 0
457 -998 0
-457 998 0
-1000 1001 0
-1002 -465 1001 0
1000 1002 -1001 0
465 1000 -1001 0
461 -1001 0
-461 1001 0
-1003 1004 0
-1005 -469 1004 0
1003 1005 -1004 0
469 1003 -1004 0
465 -1004 0
-465 1004 0
1006 -1007 0
-473 -1008 1006 0
473 1007 -1006 0
1007 1008 -1006 0
469 -1006 0
-469 1006 0
-1009 1010 0
-477 -1011 1010 0
477 1009 -1010 0
1009 1011 -1010 0
473 -1010 0
-473 1010 0
-1012 1013 0
-1014 -1009 1013 0
1012 1014 -1013 0
1009 1012 -1013 0
477 -1013 0
-477 1013 0
-1015 1016 0
-1017 -485 1016 0
1015 1017 -1016 0
485 1015 -1016 0
481 -1016 0
-481 1016 0
1018 -1019 0
-1020 -489 1018 0
1019 1020 -1018 0
489 1019 -1018 0
485 -1018 0
-485 1018 0
-1021 1022 0
-1023 -493 1022 0
1021 1023 -1022 0
493 1021 -1022 0
489 -1022 0
-489 1022 0
-1024 1025 0
-1026 -497 1025 0
1024 1026 -1025 0
497 1024 -1025 0
493 -1025 0
-493 1025 0
-1027 1028 0
-501 -1029 1028 0
501 1027 -1028 0
1027 1029 -1028 0
497 -1028 0
-497 1028 0
-1030 1031 0
-1032 -1021 1031 0
-1023 -1032 -1024 1031 0
-1033 0
1023 1030 1032 -1031 0
1021 1023 1030 -1031 0
1021 1023 1030 1032 -1031 0
1023 1024 1030 1032 -1031 0
1021 1023 1024 1030 -1031 0
1023 1026 1030 1032 -1031 0
1021 1023 1026 1030 -1031 0
1026 1030 1032 -1031 0
1021 1026 1030 1032 -1031 0
1024 1026 1030 1032 -1031 0
1021 1024 1026 1030 -1031 0
1030 1032 -1031 0
1021 1030 1032 -1031 0
1024 1030 1032 -1031 0
1021 1024 1030 1032 -1031 0
1023 1027 1030 1032 -1031 0
1021 1023 1027 1030 -1031 0
1027 1030 1032 -1031 0
1021 1027 1030 1032 -1031 0
1024 1027 1030 1032 -1031 0
1021 1024 1027 1030 -1031 0
501 -1031 0
-501 1031 0
-1034 1035 0
-509 -1036 1035 0
509 1034 -1035 0
1034 1036 -1035 0
505 -1035 0
-505 1035 0
-1037 1038 0
-513 -1039 1038 0
513 1037 -1038 0
1037 1039 -1038 0
509 -1038 0
-509 1038 0
-1040 1041 0
-1042 -517 1041 0
1040 1042 -1041 0
517 1040 -1041 0
513 -1041 0
-513 1041 0
1043 -1044 0
-105 -1045 1043 0
105 1044 -1043 0
1044 1045 -1043 0
517 -1043 0
-517 1043 0
-1046 1047 0
-1048 -417 1047 0
1046 1048 -1047 0
417 1046 -1047 0
521 -1047 0
-521 1047 0
-1049 1050 0
-1051 -529 1050 0
1049 1051 -1050 0
529 1049 -1050 0
525 -1050 0
-525 1050 0
1052 -1053 0
-1054 -25 1052 0
1053 1054 -1052 0
25 1053 -1052 0
529 -1052 0
-529 1052 0
-1055 1056 0
-537 -1057 1056 0
537 1055 -1056 0
1055 1057 -1056 0
533 -1056 0
-533 1056 0
-1058 1059 0
-1060 -541 1059 0
1058 1060 -1059 0
541 1058 -1059 0
537 -1059 0
-537 1059 0
1061 -1062 0
-1063 -545 1061 0
1062 1063 -1061 0
545 1062 -1061 0
541 -1061 0
-541 1061 0
1064 -1065 0
-549 -1066 1064 0
549 1065 -1064 0
1065 1066 -1064 0
545 -1064 0
-545 1064 0
1067 -1068 0
-509 -1069 1067 0
509 1068 -1067 0
1068 1069 -1067 0
549 -1067 0
-549 1067 0
-1070 1071 0
-557 -1072 1071 0
557 1070 -1071 0
1070 1072 -1071 0
553 -1071 0
-553 1071 0
-1073 1074 0
-1075 -561 1074 0
1073 1075 -1074 0
561 1073 -1074 0
557 -1074 0
-557 1074 0
1076 -1077 0
-1078 -565 1076 0
1077 1078 -1076 0
565 1077 -1076 0
561 -1076 0
-561 1076 0
-1079 1080 0
-569 -1081 1080 0
569 1079 -1080 0
1079 1081 -1080 0
565 -1080 0
-565 1080 0
1082 -1083 0
-1079 -1084 1082 0
1079 1083 -1082 0
1083 1084 -1082 0
569 -1082 0
-569 1082 0
-1085 1086 0
-1087 -577 1086 0
1085 1087 -1086 0
577 1085 -1086 0
573 -1086 0
-573 1086 0
-1088 1089 0
-581 -1090 1089 0
581 1088 -1089 0
1088 1090 -1089 0
577 -1089 0
-577 1089 0
-1091 1092 0
-585 -1093 1092 0
585 1091 -1092 0
1091 1093 -1092 0
581 -1092 0
-581 1092 0
1094 -1095 0
-1088 -1096 1094 0
-1091 -1090 -1096 1094 0
1088 1091 1095 -1094 0
1091 1095 1096 -1094 0
1088 1090 1095 -1094 0
1090 1095 1096 -1094 0
1088 1095 1096 -1094 0
1095 1096 -1094 0
585 -1094 0
-585 1094 0
-1097 1098 0
-593 -1099 1098 0
593 1097 -1098 0
1097 1099 -1098 0
589 -1098 0
-589 1098 0
-1100 1101 0
-1102 -597 1101 0
1100 1102 -1101 0
597 1100 -1101 0
593 -1101 0
-593 1101 0
1103 -1104 0
-89 -1105 1103 0
89 1104 -1103 0
1104 1105 -1103 0
597 -1103 0
-597 1103 0
-1106 1107 0
-605 -1108 1107 0
605 1106 -1107 0
1106 1108 -1107 0
601 -1107 0
-601 1107 0
-1109 1110 0
-609 -1111 1110 0
609 1109 -1110 0
1109 1111 -1110 0
605 -1110 0
-605 1110 0
-1112 1113 0
-1114 -613 1113 0
1112 1114 -1113 0
613 1112 -1113 0
609 -1113 0
-609 1113 0
1115 -1116 0
-1117 -617 1115 0
1116 1117 -1115 0
617 1116 -1115 0
613 -1115 0
-613 1115 0
-1118 1119 0
-1120 -621 1119 0
1118 1120 -1119 0
621 1118 -1119 0
617 -1119 0
-617 1119 0
-1121 1122 0
-625 -1123 1122 0
625 1121 -1122 0
1121 1123 -1122 0
621 -1122 0
-621 1122 0
1124 -1125 0
-1118 -1126 1124 0
-1120 -1126 -1121 1124 0
1118 1120 1125 -1124 0
1120 1125 1126 -1124 0
1118 1125 1126 -1124 0
1125 1126 -1124 0
1118 1121 1125 -1124 0
1121 1125 1126 -1124 0
625 -1124 0
-625 1124 0
-1127 1128 0
-633 -1129 1128 0
633 1127 -1128 0
1127 1129 -1128 0
629 -1128 0
-629 1128 0
-1130 1131 0
-637 -1132 1131 0
637 1130 -1131 0
1130 1132 -1131 0
633 -1131 0
-633 1131 0
-1133 1134 0
-1135 -641 1134 0
1133 1135 -1134 0
641 1133 -1134 0
637 -1134 0
-637 1134 0
1136 -1137 0
-1138 -645 1136 0
1137 1138 -1136 0
645 1137 -1136 0
641 -1136 0
-641 1136 0
-1139 1140 0
-1141 -649 1140 0
1139 1141 -1140 0
649 1139 -1140 0
645 -1140 0
-645 1140 0
-1142 1143 0
-1144 -1139 1143 0
1142 1144 -1143 0
1139 1142 -1143 0
649 -1143 0
-649 1143 0
655 0
-658 0
-661 0
664 0
667 0
-670 0
-673 0
676 0
-679 0
-682 0
-685 0
688 0
691 0
694 0
-697 0
-700 0
703 0
706 0
709 0
713 0
-716 0
-719 0
722 0
725 0
-728 0
1145 0
-732 0
-735 0
-738 0
741 0
-744 0
747 0
750 0
-753 0
-756 0
-759 0
-762 0
-765 0
768 0
771 0
774 0
777 0
-780 0
-783 0
-786 0
789 0
792 0
795 0
-798 0
801 0
804 0
807 0
-810 0
813 0
816 0
-819 0
-822 0
825 0
-828 0
831 0
-834 0
837 0
840 0
-844 0
-847 0
-850 0
853 0
-856 0
859 0
862 0
865 0
-868 0
-871 0
-874 0
877 0
-880 0
883 0
-887 0
-890 0
893 0
896 0
900 0
-903 0
-906 0
909 0
-912 0
915 0
-918 0
921 0
-924 0
-927 0
-930 0
-933 0
936 0
939 0
-942 0
945 0
948 0
951 0
-954 0
957 0
960 0
-963 0
-966 0
-969 0
972 0
975 0
-978 0
981 0
-984 0
-987 0
990 0
993 0
-996 0
999 0
-1002 0
-1005 0
1008 0
1011 0
-1014 0
-1017 0
-1020 0
-1023 0
-1026 0
1029 0
-1032 0
1036 0
1039 0
-1042 0
1045 0
-1048 0
-1051 0
-1054 0
1057 0
-1060 0
-1063 0
1066 0
1069 0
1072 0
-1075 0
-1078 0
1081 0
1084 0
-1087 0
1090 0
1093 0
1096 0
1099 0
-1102 0
1105 0
1108 0
1111 0
-1114 0
-1117 0
-1120 0
1123 0
1126 0
1129 0
1132 0
-1135 0
-1138 0
-1141 0
-1144 0
-653 0
-656 0
-659 0
-662 0
-665 0
-668 0
-671 0
-674 0
-677 0
-680 0
-683 0
-686 0
-689 0
-692 0
-695 0
-698 0
-701 0
-704 0
-707 0
-711 0
-714 0
-717 0
-720 0
-723 0
-726 0
-729 0
-730 0
-733 0
-736 0
-739 0
-742 0
-745 0
-748 0
-751 0
-754 0
-757 0
-760 0
-763 0
-766 0
-769 0
-772 0
-775 0
-778 0
-781 0
-784 0
-787 0
-790 0
-793 0
-796 0
-799 0
-802 0
-805 0
-808 0
812 0
814 0
-817 0
821 0
-823 0
-826 0
829 0
-832 0
-835 0
839 0
-842 0
-845 0
-848 0
852 0
854 0
-857 0
-860 0
-863 0
-866 0
870 0
-872 0
875 0
878 0
-881 0
-885 0
888 0
-891 0
-894 0
-898 0
-901 0
905 0
907 0
-910 0
-913 0
-916 0
920 0
923 0
-925 0
929 0
931 0
935 0
-937 0
-940 0
944 0
-946 0
-949 0
-952 0
956 0
-958 0
-961 0
965 0
-967 0
971 0
-973 0
977 0
-979 0
-982 0
986 0
988 0
-991 0
-994 0
-997 0
-1000 0
-1003 0
1007 0
1009 0
-1012 0
-1015 0
1019 0
-1021 0
-1024 0
1027 0
-1030 0
-1034 0
-1037 0
-1040 0
1044 0
-1046 0
-1049 0
1053 0
-1055 0
-1058 0
1062 0
1065 0
1068 0
-1070 0
-1073 0
1077 0
-1079 0
1083 0
-1085 0
1088 0
-1091 0
1095 0
-1097 0
-1100 0
1104 0
-1106 0
-1109 0
-1112 0
1116 0
1118 0
1121 0
1125 0
-1127 0
-1130 0
-1133 0
1137 0
1139 0
-1142 0
4 0
12 0
24 0
32 0
56 0
64 0
72 0
80 0
92 0
96 0
108 0
112 0
124 0
128 0
132 0
136 0
148 0
164 0
168 0
192 0
-208 0
-232 0
-256 0
-284 0
-312 0
-328 0
-352 0
-364 0
-380 0
-392 0
-408 0
-420 0
-436 0
-460 0
-484 0
-508 0
-512 0
-524 0
-528 0
-536 0
-556 0
-576 0
-592 0
-604 0
-632 0
